1748543
26,37,9,66,77,10,101,82,52,35,1,83,3,25,16,94,107,81,2,51,84,59,46,29,34,45,98,5,90,109,24,23,80,62,105,76,88,68,40,71,47,97,104,102,22,64,91,89,11,49,38,41,72,31,39,14,78,60,12,55,50,18,99,87,93,96,42,73,19,17,53,100,54,58,15,63,20,44,61,32,85,6,95,43,30,103,67,4,79,92,74,56,48,21,13,108,33,7,106,65,36,28,8,70,69,27,86,57,75